NAME: tsp10_7
COMMENT: 10-tsp problem (Padberg/Rinaldi)
TYPE: TSP
DIMENSION: 10
EDGE_WEIGHT_TYPE : EUC_2D
NODE_COORD_SECTION
1 14 12
2 32 32
3 29 26
4 4 19
5 40 31
6 35 29
7 24 5
8 24 19
9 23 17
10 37 6
